\ LP format - for model browsing. Use MPS format to capture full model detail.
Minimize
  C
Subject To
 init_flow(0): x(1,i,0,1,0) = 1
 init_flow(1): x(2,i,0,1,0) = 1
 init_flow(2): x(3,i,0,2,0) = 1
 final_flow(0): x(1,3,3,f,5) + x(1,3,4,f,6) + x(1,3,5,f,7) + x(1,3,6,f,8)
   + x(1,3,7,f,9) + x(1,3,8,f,10) + x(1,3,9,f,11) = 1
 final_flow(1): x(2,2,3,f,5) + x(2,2,4,f,6) + x(2,2,5,f,7) + x(2,2,6,f,8)
   + x(2,2,7,f,9) + x(2,2,8,f,10) + x(2,2,9,f,11) = 1
 final_flow(2): x(3,3,6,f,7) + x(3,3,7,f,8) + x(3,3,8,f,9) + x(3,3,9,f,10)
   + x(3,3,10,f,11) = 1
 flow(1,1,0): x(1,i,0,1,0) - x(1,1,0,2,1) - x(1,1,0,1,1) = 0
 flow(1,1,1): x(1,1,0,1,1) - x(1,1,1,2,2) - x(1,1,1,1,2) = 0
 flow(1,2,1): x(1,1,0,2,1) - x(1,2,1,3,3) - x(1,2,1,2,2) = 0
 flow(1,1,2): x(1,1,1,1,2) - x(1,1,2,2,3) - x(1,1,2,1,3) = 0
 flow(1,2,2): x(1,1,1,2,2) + x(1,2,1,2,2) - x(1,2,2,3,4) - x(1,2,2,2,3)
   = 0
 flow(1,1,3): x(1,1,2,1,3) - x(1,1,3,2,4) - x(1,1,3,1,4) = 0
 flow(1,2,3): x(1,1,2,2,3) + x(1,2,2,2,3) - x(1,2,3,3,5) - x(1,2,3,2,4)
   = 0
 flow(1,3,3): x(1,2,1,3,3) - x(1,3,3,f,5) - x(1,3,3,3,4) = 0
 flow(1,1,4): x(1,1,3,1,4) - x(1,1,4,2,5) - x(1,1,4,1,5) = 0
 flow(1,2,4): x(1,1,3,2,4) + x(1,2,3,2,4) - x(1,2,4,3,6) - x(1,2,4,2,5)
   = 0
 flow(1,3,4): x(1,2,2,3,4) + x(1,3,3,3,4) - x(1,3,4,f,6) - x(1,3,4,3,5)
   = 0
 flow(1,1,5): x(1,1,4,1,5) - x(1,1,5,2,6) - x(1,1,5,1,6) = 0
 flow(1,2,5): x(1,1,4,2,5) + x(1,2,4,2,5) - x(1,2,5,3,7) - x(1,2,5,2,6)
   = 0
 flow(1,3,5): x(1,2,3,3,5) + x(1,3,4,3,5) - x(1,3,5,f,7) - x(1,3,5,3,6)
   = 0
 flow(1,1,6): x(1,1,5,1,6) - x(1,1,6,2,7) = 0
 flow(1,2,6): x(1,1,5,2,6) + x(1,2,5,2,6) - x(1,2,6,3,8) - x(1,2,6,2,7)
   = 0
 flow(1,3,6): x(1,2,4,3,6) + x(1,3,5,3,6) - x(1,3,6,f,8) - x(1,3,6,3,7)
   = 0
 flow(1,2,7): x(1,1,6,2,7) + x(1,2,6,2,7) - x(1,2,7,3,9) = 0
 flow(1,3,7): x(1,2,5,3,7) + x(1,3,6,3,7) - x(1,3,7,f,9) - x(1,3,7,3,8)
   = 0
 flow(1,3,8): x(1,2,6,3,8) + x(1,3,7,3,8) - x(1,3,8,f,10) - x(1,3,8,3,9)
   = 0
 flow(1,3,9): x(1,2,7,3,9) + x(1,3,8,3,9) - x(1,3,9,f,11) - x(1,3,9,3,10)
   = 0
 flow(1,3,10): x(1,3,9,3,10) = 0
 flow(2,1,0): x(2,i,0,1,0) - x(2,1,0,3,1) - x(2,1,0,1,1) = 0
 flow(2,1,1): x(2,1,0,1,1) - x(2,1,1,3,2) - x(2,1,1,1,2) = 0
 flow(2,3,1): x(2,1,0,3,1) - x(2,3,1,2,3) - x(2,3,1,3,2) = 0
 flow(2,1,2): x(2,1,1,1,2) - x(2,1,2,3,3) - x(2,1,2,1,3) = 0
 flow(2,3,2): x(2,1,1,3,2) + x(2,3,1,3,2) - x(2,3,2,2,4) - x(2,3,2,3,3)
   = 0
 flow(2,1,3): x(2,1,2,1,3) - x(2,1,3,3,4) - x(2,1,3,1,4) = 0
 flow(2,2,3): x(2,3,1,2,3) - x(2,2,3,f,5) - x(2,2,3,2,4) = 0
 flow(2,3,3): x(2,1,2,3,3) + x(2,3,2,3,3) - x(2,3,3,2,5) - x(2,3,3,3,4)
   = 0
 flow(2,1,4): x(2,1,3,1,4) - x(2,1,4,3,5) - x(2,1,4,1,5) = 0
 flow(2,2,4): x(2,3,2,2,4) + x(2,2,3,2,4) - x(2,2,4,f,6) - x(2,2,4,2,5)
   = 0
 flow(2,3,4): x(2,1,3,3,4) + x(2,3,3,3,4) - x(2,3,4,2,6) - x(2,3,4,3,5)
   = 0
 flow(2,1,5): x(2,1,4,1,5) - x(2,1,5,3,6) - x(2,1,5,1,6) = 0
 flow(2,2,5): x(2,3,3,2,5) + x(2,2,4,2,5) - x(2,2,5,f,7) - x(2,2,5,2,6)
   = 0
 flow(2,3,5): x(2,1,4,3,5) + x(2,3,4,3,5) - x(2,3,5,2,7) - x(2,3,5,3,6)
   = 0
 flow(2,1,6): x(2,1,5,1,6) - x(2,1,6,3,7) = 0
 flow(2,2,6): x(2,3,4,2,6) + x(2,2,5,2,6) - x(2,2,6,f,8) - x(2,2,6,2,7)
   = 0
 flow(2,3,6): x(2,1,5,3,6) + x(2,3,5,3,6) - x(2,3,6,2,8) - x(2,3,6,3,7)
   = 0
 flow(2,2,7): x(2,3,5,2,7) + x(2,2,6,2,7) - x(2,2,7,f,9) - x(2,2,7,2,8)
   = 0
 flow(2,3,7): x(2,1,6,3,7) + x(2,3,6,3,7) - x(2,3,7,2,9) = 0
 flow(2,2,8): x(2,3,6,2,8) + x(2,2,7,2,8) - x(2,2,8,f,10) - x(2,2,8,2,9)
   = 0
 flow(2,2,9): x(2,3,7,2,9) + x(2,2,8,2,9) - x(2,2,9,f,11) - x(2,2,9,2,10)
   = 0
 flow(2,2,10): x(2,2,9,2,10) = 0
 flow(3,2,0): x(3,i,0,2,0) - x(3,2,0,1,4) - x(3,2,0,2,1) = 0
 flow(3,2,1): x(3,2,0,2,1) - x(3,2,1,1,5) - x(3,2,1,2,2) = 0
 flow(3,2,2): x(3,2,1,2,2) - x(3,2,2,1,6) - x(3,2,2,2,3) = 0
 flow(3,2,3): x(3,2,2,2,3) - x(3,2,3,1,7) - x(3,2,3,2,4) = 0
 flow(3,1,4): x(3,2,0,1,4) - x(3,1,4,3,6) - x(3,1,4,1,5) = 0
 flow(3,2,4): x(3,2,3,2,4) - x(3,2,4,1,8) = 0
 flow(3,1,5): x(3,2,1,1,5) + x(3,1,4,1,5) - x(3,1,5,3,7) - x(3,1,5,1,6)
   = 0
 flow(3,1,6): x(3,2,2,1,6) + x(3,1,5,1,6) - x(3,1,6,3,8) - x(3,1,6,1,7)
   = 0
 flow(3,3,6): x(3,1,4,3,6) - x(3,3,6,f,7) - x(3,3,6,3,7) = 0
 flow(3,1,7): x(3,2,3,1,7) + x(3,1,6,1,7) - x(3,1,7,3,9) - x(3,1,7,1,8)
   = 0
 flow(3,3,7): x(3,1,5,3,7) + x(3,3,6,3,7) - x(3,3,7,f,8) - x(3,3,7,3,8)
   = 0
 flow(3,1,8): x(3,2,4,1,8) + x(3,1,7,1,8) - x(3,1,8,3,10) = 0
 flow(3,3,8): x(3,1,6,3,8) + x(3,3,7,3,8) - x(3,3,8,f,9) - x(3,3,8,3,9)
   = 0
 flow(3,3,9): x(3,1,7,3,9) + x(3,3,8,3,9) - x(3,3,9,f,10) - x(3,3,9,3,10)
   = 0
 flow(3,3,10): x(3,1,8,3,10) + x(3,3,9,3,10) - x(3,3,10,f,11)
   - x(3,3,10,3,11) = 0
 flow(3,3,11): x(3,3,10,3,11) = 0
 processing(1,0): x(1,1,0,2,1) + x(2,1,0,3,1) <= 1
 processing(2,0): x(3,2,0,1,4) <= 1
 processing(1,1): x(1,1,1,2,2) + x(2,1,1,3,2) <= 1
 processing(2,1): x(1,2,1,3,3) + x(3,2,0,1,4) + x(3,2,1,1,5) <= 1
 processing(3,1): x(2,3,1,2,3) <= 1
 processing(1,2): x(1,1,2,2,3) + x(2,1,2,3,3) <= 1
 processing(2,2): x(1,2,1,3,3) + x(1,2,2,3,4) + x(3,2,0,1,4) + x(3,2,1,1,5)
   + x(3,2,2,1,6) <= 1
 processing(3,2): x(2,3,1,2,3) + x(2,3,2,2,4) <= 1
 processing(1,3): x(1,1,3,2,4) + x(2,1,3,3,4) <= 1
 processing(2,3): x(1,2,2,3,4) + x(1,2,3,3,5) + x(2,2,3,f,5) + x(3,2,0,1,4)
   + x(3,2,1,1,5) + x(3,2,2,1,6) + x(3,2,3,1,7) <= 1
 processing(3,3): x(1,3,3,f,5) + x(2,3,2,2,4) + x(2,3,3,2,5) <= 1
 processing(1,4): x(1,1,4,2,5) + x(2,1,4,3,5) + x(3,1,4,3,6) <= 1
 processing(2,4): x(1,2,3,3,5) + x(1,2,4,3,6) + x(2,2,3,f,5) + x(2,2,4,f,6)
   + x(3,2,1,1,5) + x(3,2,2,1,6) + x(3,2,3,1,7) + x(3,2,4,1,8) <= 1
 processing(3,4): x(1,3,3,f,5) + x(1,3,4,f,6) + x(2,3,3,2,5) + x(2,3,4,2,6)
   <= 1
 processing(1,5): x(1,1,5,2,6) + x(2,1,5,3,6) + x(3,1,4,3,6) + x(3,1,5,3,7)
   <= 1
 processing(2,5): x(1,2,4,3,6) + x(1,2,5,3,7) + x(2,2,4,f,6) + x(2,2,5,f,7)
   + x(3,2,2,1,6) + x(3,2,3,1,7) + x(3,2,4,1,8) <= 1
 processing(3,5): x(1,3,4,f,6) + x(1,3,5,f,7) + x(2,3,4,2,6) + x(2,3,5,2,7)
   <= 1
 processing(1,6): x(1,1,6,2,7) + x(2,1,6,3,7) + x(3,1,5,3,7) + x(3,1,6,3,8)
   <= 1
 processing(2,6): x(1,2,5,3,7) + x(1,2,6,3,8) + x(2,2,5,f,7) + x(2,2,6,f,8)
   + x(3,2,3,1,7) + x(3,2,4,1,8) <= 1
 processing(3,6): x(1,3,5,f,7) + x(1,3,6,f,8) + x(2,3,5,2,7) + x(2,3,6,2,8)
   + x(3,3,6,f,7) <= 1
 processing(1,7): x(3,1,6,3,8) + x(3,1,7,3,9) <= 1
 processing(2,7): x(1,2,6,3,8) + x(1,2,7,3,9) + x(2,2,6,f,8) + x(2,2,7,f,9)
   + x(3,2,4,1,8) <= 1
 processing(3,7): x(1,3,6,f,8) + x(1,3,7,f,9) + x(2,3,6,2,8) + x(2,3,7,2,9)
   + x(3,3,7,f,8) <= 1
 processing(1,8): x(3,1,7,3,9) + x(3,1,8,3,10) <= 1
 processing(2,8): x(1,2,7,3,9) + x(2,2,7,f,9) + x(2,2,8,f,10) <= 1
 processing(3,8): x(1,3,7,f,9) + x(1,3,8,f,10) + x(2,3,7,2,9)
   + x(3,3,8,f,9) <= 1
 processing(1,9): x(3,1,8,3,10) <= 1
 processing(2,9): x(2,2,8,f,10) + x(2,2,9,f,11) <= 1
 processing(3,9): x(1,3,8,f,10) + x(1,3,9,f,11) + x(3,3,9,f,10) <= 1
 processing(2,10): x(2,2,9,f,11) <= 1
 processing(3,10): x(1,3,9,f,11) + x(3,3,10,f,11) <= 1
 fim(1): - 5 x(1,3,3,f,5) - 6 x(1,3,4,f,6) - 7 x(1,3,5,f,7)
   - 8 x(1,3,6,f,8) - 9 x(1,3,7,f,9) - 10 x(1,3,8,f,10) - 11 x(1,3,9,f,11)
   + C >= 0
 fim(2): - 5 x(2,2,3,f,5) - 6 x(2,2,4,f,6) - 7 x(2,2,5,f,7)
   - 8 x(2,2,6,f,8) - 9 x(2,2,7,f,9) - 10 x(2,2,8,f,10) - 11 x(2,2,9,f,11)
   + C >= 0
 fim(3): - 7 x(3,3,6,f,7) - 8 x(3,3,7,f,8) - 9 x(3,3,8,f,9)
   - 10 x(3,3,9,f,10) - 11 x(3,3,10,f,11) + C >= 0
Bounds
 x(1,i,0,1,0) <= 1
 x(1,1,0,2,1) <= 1
 x(1,1,0,1,1) <= 1
 x(1,1,1,2,2) <= 1
 x(1,1,1,1,2) <= 1
 x(1,1,2,2,3) <= 1
 x(1,1,2,1,3) <= 1
 x(1,1,3,2,4) <= 1
 x(1,1,3,1,4) <= 1
 x(1,1,4,2,5) <= 1
 x(1,1,4,1,5) <= 1
 x(1,1,5,2,6) <= 1
 x(1,1,5,1,6) <= 1
 x(1,1,6,2,7) <= 1
 x(1,2,1,3,3) <= 1
 x(1,2,1,2,2) <= 1
 x(1,2,2,3,4) <= 1
 x(1,2,2,2,3) <= 1
 x(1,2,3,3,5) <= 1
 x(1,2,3,2,4) <= 1
 x(1,2,4,3,6) <= 1
 x(1,2,4,2,5) <= 1
 x(1,2,5,3,7) <= 1
 x(1,2,5,2,6) <= 1
 x(1,2,6,3,8) <= 1
 x(1,2,6,2,7) <= 1
 x(1,2,7,3,9) <= 1
 x(1,3,3,f,5) <= 1
 x(1,3,3,3,4) <= 1
 x(1,3,4,f,6) <= 1
 x(1,3,4,3,5) <= 1
 x(1,3,5,f,7) <= 1
 x(1,3,5,3,6) <= 1
 x(1,3,6,f,8) <= 1
 x(1,3,6,3,7) <= 1
 x(1,3,7,f,9) <= 1
 x(1,3,7,3,8) <= 1
 x(1,3,8,f,10) <= 1
 x(1,3,8,3,9) <= 1
 x(1,3,9,f,11) <= 1
 x(1,3,9,3,10) <= 1
 x(2,i,0,1,0) <= 1
 x(2,1,0,3,1) <= 1
 x(2,1,0,1,1) <= 1
 x(2,1,1,3,2) <= 1
 x(2,1,1,1,2) <= 1
 x(2,1,2,3,3) <= 1
 x(2,1,2,1,3) <= 1
 x(2,1,3,3,4) <= 1
 x(2,1,3,1,4) <= 1
 x(2,1,4,3,5) <= 1
 x(2,1,4,1,5) <= 1
 x(2,1,5,3,6) <= 1
 x(2,1,5,1,6) <= 1
 x(2,1,6,3,7) <= 1
 x(2,3,1,2,3) <= 1
 x(2,3,1,3,2) <= 1
 x(2,3,2,2,4) <= 1
 x(2,3,2,3,3) <= 1
 x(2,3,3,2,5) <= 1
 x(2,3,3,3,4) <= 1
 x(2,3,4,2,6) <= 1
 x(2,3,4,3,5) <= 1
 x(2,3,5,2,7) <= 1
 x(2,3,5,3,6) <= 1
 x(2,3,6,2,8) <= 1
 x(2,3,6,3,7) <= 1
 x(2,3,7,2,9) <= 1
 x(2,2,3,f,5) <= 1
 x(2,2,3,2,4) <= 1
 x(2,2,4,f,6) <= 1
 x(2,2,4,2,5) <= 1
 x(2,2,5,f,7) <= 1
 x(2,2,5,2,6) <= 1
 x(2,2,6,f,8) <= 1
 x(2,2,6,2,7) <= 1
 x(2,2,7,f,9) <= 1
 x(2,2,7,2,8) <= 1
 x(2,2,8,f,10) <= 1
 x(2,2,8,2,9) <= 1
 x(2,2,9,f,11) <= 1
 x(2,2,9,2,10) <= 1
 x(3,i,0,2,0) <= 1
 x(3,2,0,1,4) <= 1
 x(3,2,0,2,1) <= 1
 x(3,2,1,1,5) <= 1
 x(3,2,1,2,2) <= 1
 x(3,2,2,1,6) <= 1
 x(3,2,2,2,3) <= 1
 x(3,2,3,1,7) <= 1
 x(3,2,3,2,4) <= 1
 x(3,2,4,1,8) <= 1
 x(3,1,4,3,6) <= 1
 x(3,1,4,1,5) <= 1
 x(3,1,5,3,7) <= 1
 x(3,1,5,1,6) <= 1
 x(3,1,6,3,8) <= 1
 x(3,1,6,1,7) <= 1
 x(3,1,7,3,9) <= 1
 x(3,1,7,1,8) <= 1
 x(3,1,8,3,10) <= 1
 x(3,3,6,f,7) <= 1
 x(3,3,6,3,7) <= 1
 x(3,3,7,f,8) <= 1
 x(3,3,7,3,8) <= 1
 x(3,3,8,f,9) <= 1
 x(3,3,8,3,9) <= 1
 x(3,3,9,f,10) <= 1
 x(3,3,9,3,10) <= 1
 x(3,3,10,f,11) <= 1
 x(3,3,10,3,11) <= 1
 C <= 12
Generals
 x(1,i,0,1,0) x(1,1,0,2,1) x(1,1,0,1,1) x(1,1,1,2,2) x(1,1,1,1,2)
 x(1,1,2,2,3) x(1,1,2,1,3) x(1,1,3,2,4) x(1,1,3,1,4) x(1,1,4,2,5)
 x(1,1,4,1,5) x(1,1,5,2,6) x(1,1,5,1,6) x(1,1,6,2,7) x(1,2,1,3,3)
 x(1,2,1,2,2) x(1,2,2,3,4) x(1,2,2,2,3) x(1,2,3,3,5) x(1,2,3,2,4)
 x(1,2,4,3,6) x(1,2,4,2,5) x(1,2,5,3,7) x(1,2,5,2,6) x(1,2,6,3,8)
 x(1,2,6,2,7) x(1,2,7,3,9) x(1,3,3,f,5) x(1,3,3,3,4) x(1,3,4,f,6)
 x(1,3,4,3,5) x(1,3,5,f,7) x(1,3,5,3,6) x(1,3,6,f,8) x(1,3,6,3,7)
 x(1,3,7,f,9) x(1,3,7,3,8) x(1,3,8,f,10) x(1,3,8,3,9) x(1,3,9,f,11)
 x(1,3,9,3,10) x(2,i,0,1,0) x(2,1,0,3,1) x(2,1,0,1,1) x(2,1,1,3,2)
 x(2,1,1,1,2) x(2,1,2,3,3) x(2,1,2,1,3) x(2,1,3,3,4) x(2,1,3,1,4)
 x(2,1,4,3,5) x(2,1,4,1,5) x(2,1,5,3,6) x(2,1,5,1,6) x(2,1,6,3,7)
 x(2,3,1,2,3) x(2,3,1,3,2) x(2,3,2,2,4) x(2,3,2,3,3) x(2,3,3,2,5)
 x(2,3,3,3,4) x(2,3,4,2,6) x(2,3,4,3,5) x(2,3,5,2,7) x(2,3,5,3,6)
 x(2,3,6,2,8) x(2,3,6,3,7) x(2,3,7,2,9) x(2,2,3,f,5) x(2,2,3,2,4)
 x(2,2,4,f,6) x(2,2,4,2,5) x(2,2,5,f,7) x(2,2,5,2,6) x(2,2,6,f,8)
 x(2,2,6,2,7) x(2,2,7,f,9) x(2,2,7,2,8) x(2,2,8,f,10) x(2,2,8,2,9)
 x(2,2,9,f,11) x(2,2,9,2,10) x(3,i,0,2,0) x(3,2,0,1,4) x(3,2,0,2,1)
 x(3,2,1,1,5) x(3,2,1,2,2) x(3,2,2,1,6) x(3,2,2,2,3) x(3,2,3,1,7)
 x(3,2,3,2,4) x(3,2,4,1,8) x(3,1,4,3,6) x(3,1,4,1,5) x(3,1,5,3,7)
 x(3,1,5,1,6) x(3,1,6,3,8) x(3,1,6,1,7) x(3,1,7,3,9) x(3,1,7,1,8)
 x(3,1,8,3,10) x(3,3,6,f,7) x(3,3,6,3,7) x(3,3,7,f,8) x(3,3,7,3,8)
 x(3,3,8,f,9) x(3,3,8,3,9) x(3,3,9,f,10) x(3,3,9,3,10) x(3,3,10,f,11)
 x(3,3,10,3,11) C
End
